Route #1: 31 32 34 54 55 41 57 56 58 63 62 64 65 66 67 68 69 37 38 40 51 49 48 52 45 53 46 43 42 44 25
Route #2: 20 29 23 24 26 30 21 22 28 27 47 50 70 39 59 61 60 14 19 15 2 17 16 12 13
Route #3: 35 33 18 1 71 6 10
Route #4: 36 11 5 3 8 7 9 4
Cost 299
